Cars = 1..200;
Options = 1..5;
Classes = 1..25;
sequenceMinCapacity = [0, 0, 0, 0, 0];
sequenceMaxCapacity = [1, 2, 1, 2, 1];
sequenceSize = [2, 3, 3, 5, 5];
numOrdered = [3, 3, 26, 1, 18, 5, 4, 14, 1, 2, 3, 4, 9, 1, 3, 8, 5, 5, 35, 15, 7, 19, 2, 3, 4];
classHasOption = [|false,  true, false,  true,  true
                  |false,  true,  true, false, false
                  | true, false, false, false, false
                  |false, false, false,  true,  true
                  | true,  true, false, false, false
                  | true, false,  true,  true, false
                  | true, false, false, false,  true
                  |false, false, false,  true, false
                  |false, false,  true,  true,  true
                  | true,  true,  true, false, false
                  |false,  true,  true,  true, false
                  | true, false, false,  true,  true
                  | true, false,  true, false, false
                  | true,  true,  true,  true, false
                  |false, false,  true, false,  true
                  |false, false, false, false,  true
                  | true, false, false,  true, false
                  | true,  true, false,  true, false
                  |false,  true, false, false, false
                  |false,  true, false,  true, false
                  |false, false,  true, false, false
                  |false, false,  true, false, false
                  |false,  true,  true, false,  true
                  | true,  true, false, false,  true
                  |false,  true, false, false,  true|];
optionOrdering = [3, 5, 1, 4, 2];
